(set-info :smt-lib-version 2.6)
(set-logic UFLIA)
(set-info :source |Benchmarks from the paper: "Extending Sledgehammer with SMT Solvers" by Jasmin Blanchette, Sascha Bohme, and Lawrence C. Paulson, CADE 2011.  Translated to SMT2 by Andrew Reynolds and Morgan Deters.|)
(set-info :category "industrial")
(set-info :status unknown)
(declare-sort S1 0)
(declare-sort S2 0)
(declare-sort S3 0)
(declare-sort S4 0)
(declare-sort S5 0)
(declare-sort S6 0)
(declare-sort S7 0)
(declare-sort S8 0)
(declare-sort S9 0)
(declare-sort S10 0)
(declare-sort S11 0)
(declare-sort S12 0)
(declare-sort S13 0)
(declare-sort S14 0)
(declare-sort S15 0)
(declare-sort S16 0)
(declare-sort S17 0)
(declare-sort S18 0)
(declare-sort S19 0)
(declare-sort S20 0)
(declare-sort S21 0)
(declare-sort S22 0)
(declare-sort S23 0)
(declare-sort S24 0)
(declare-sort S25 0)
(declare-sort S26 0)
(declare-sort S27 0)
(declare-sort S28 0)
(declare-sort S29 0)
(declare-fun f1 () S1)
(declare-fun f2 () S1)
(declare-fun f3 (S3 S2) S1)
(declare-fun f4 (S4 S3) S3)
(declare-fun f5 (S2) S4)
(declare-fun f6 (S5 S3) S1)
(declare-fun f7 (S2) S5)
(declare-fun f8 (S2) S4)
(declare-fun f9 () S3)
(declare-fun f10 (S3) S5)
(declare-fun f11 () S3)
(declare-fun f12 (S2) S4)
(declare-fun f13 (S6 S7) S2)
(declare-fun f14 (S8 S9) S6)
(declare-fun f15 (S10 S7) S8)
(declare-fun f16 () S10)
(declare-fun f17 () S7)
(declare-fun f18 () S9)
(declare-fun f19 () S7)
(declare-fun f20 (S11 S9) S2)
(declare-fun f21 () S11)
(declare-fun f22 (S3) S5)
(declare-fun f23 (S13 S12) S1)
(declare-fun f24 (S7 S12) S13)
(declare-fun f25 (S15 S2) S16)
(declare-fun f26 (S17 S14) S15)
(declare-fun f27 () S17)
(declare-fun f28 (S18 Int) S16)
(declare-fun f29 () S18)
(declare-fun f30 (S3) S3)
(declare-fun f31 (S19 S3) S2)
(declare-fun f32 () S19)
(declare-fun f33 () S1)
(declare-fun f34 () S9)
(declare-fun f35 (S20 S9) S9)
(declare-fun f36 (S21 S9) S20)
(declare-fun f37 () S21)
(declare-fun f38 () S15)
(declare-fun f39 (S16) S3)
(declare-fun f40 (S22) S4)
(declare-fun f41 (S23 S16) Int)
(declare-fun f42 () S23)
(declare-fun f43 (S24 S2) S4)
(declare-fun f44 (S22) S24)
(declare-fun f45 (S22 S19) S1)
(declare-fun f46 (S26 S25) S9)
(declare-fun f47 () S26)
(declare-fun f48 (S9 S12 S16 S12) S1)
(declare-fun f49 (S27 S2) S2)
(declare-fun f50 (S22 S2) S27)
(declare-fun f51 (S28 S29) S9)
(declare-fun f52 () S28)
(declare-fun f53 (S25) S29)
(declare-fun f54 (S3) S1)
(declare-fun f55 (S22 S19) S1)
(declare-fun f56 (S9 S12) S13)
(declare-fun f57 (S3) S4)
(assert (not (= f1 f2)))
(assert (forall ((?v0 S2) (?v1 S3) (?v2 S2)) (= (= (f3 (f4 (f5 ?v0) ?v1) ?v2) f1) (or (= ?v2 ?v0) (= (f6 (f7 ?v2) ?v1) f1)))))
(assert (forall ((?v0 S2) (?v1 S3) (?v2 S2)) (= (= (f3 (f4 (f8 ?v0) ?v1) ?v2) f1) (=> (not (= ?v2 ?v0)) (= (f3 ?v1 ?v2) f1)))))
(assert (forall ((?v0 S2)) (= (= (f3 f9 ?v0) f1) false)))
(assert (not (= (f6 (f10 f11) (f4 (f12 (f13 (f14 (f15 f16 f17) f18) f19)) f11)) f1)))
(assert (= (f6 (f10 f11) (f4 (f12 (f20 f21 f18)) f11)) f1))
(assert (= (f6 (f22 f11) (f4 (f12 (f13 (f14 (f15 f16 f17) f18) f19)) f11)) f1))
(assert (forall ((?v0 S3)) (= (f6 (f10 ?v0) f11) f1)))
(assert (forall ((?v0 S7) (?v1 S9) (?v2 S7) (?v3 S7) (?v4 S9) (?v5 S7)) (= (= (f13 (f14 (f15 f16 ?v0) ?v1) ?v2) (f13 (f14 (f15 f16 ?v3) ?v4) ?v5)) (and (= ?v0 ?v3) (and (= ?v1 ?v4) (= ?v2 ?v5))))))
(assert (forall ((?v0 S3) (?v1 S3)) (=> (= (f6 (f10 ?v0) ?v1) f1) (= (f6 (f22 ?v0) ?v1) f1))))
(assert (forall ((?v0 S3) (?v1 S3) (?v2 S3)) (let ((?v_0 (f10 ?v2))) (=> (= (f6 (f10 ?v0) ?v1) f1) (=> (= (f6 ?v_0 ?v0) f1) (= (f6 ?v_0 ?v1) f1))))))
(assert (forall ((?v0 S3) (?v1 S2) (?v2 S3)) (let ((?v_0 (f10 ?v0)) (?v_1 (f12 ?v1))) (=> (= (f6 ?v_0 (f4 ?v_1 f11)) f1) (=> (= (f6 ?v_0 ?v2) f1) (= (f6 ?v_0 (f4 ?v_1 ?v2)) f1))))))
(assert (forall ((?v0 S3) (?v1 S2) (?v2 S3)) (let ((?v_0 (f10 ?v0)) (?v_1 (f12 ?v1))) (=> (= (f6 ?v_0 (f4 ?v_1 ?v2)) f1) (and (= (f6 ?v_0 (f4 ?v_1 f11)) f1) (= (f6 ?v_0 ?v2) f1))))))
(assert (forall ((?v0 S3) (?v1 S7) (?v2 S9) (?v3 S7) (?v4 S7)) (let ((?v_0 (f10 ?v0)) (?v_1 (f14 (f15 f16 ?v1) ?v2))) (=> (= (f6 ?v_0 (f4 (f12 (f13 ?v_1 ?v3)) f11)) f1) (=> (forall ((?v5 S12) (?v6 S12)) (=> (= (f23 (f24 ?v3 ?v5) ?v6) f1) (= (f23 (f24 ?v4 ?v5) ?v6) f1))) (= (f6 ?v_0 (f4 (f12 (f13 ?v_1 ?v4)) f11)) f1))))))
(assert (forall ((?v0 S3) (?v1 S7) (?v2 S9) (?v3 S7) (?v4 S7)) (let ((?v_0 (f10 ?v0))) (=> (= (f6 ?v_0 (f4 (f12 (f13 (f14 (f15 f16 ?v1) ?v2) ?v3)) f11)) f1) (=> (forall ((?v5 S12) (?v6 S12)) (=> (= (f23 (f24 ?v4 ?v5) ?v6) f1) (= (f23 (f24 ?v1 ?v5) ?v6) f1))) (= (f6 ?v_0 (f4 (f12 (f13 (f14 (f15 f16 ?v4) ?v2) ?v3)) f11)) f1))))))
(assert (forall ((?v0 S2) (?v1 S2) (?v2 S3)) (let ((?v_0 (f7 ?v0))) (=> (= (f6 ?v_0 (f4 (f12 ?v1) ?v2)) f1) (=> (=> (= ?v0 ?v1) false) (=> (=> (= (f6 ?v_0 ?v2) f1) false) false))))))
(assert (forall ((?v0 S2) (?v1 S3) (?v2 S2)) (let ((?v_0 (f7 ?v0))) (=> (=> (not (= (f6 ?v_0 ?v1) f1)) (= ?v0 ?v2)) (= (f6 ?v_0 (f4 (f12 ?v2) ?v1)) f1)))))
(assert (forall ((?v0 S3) (?v1 S7) (?v2 S9) (?v3 S7) (?v4 S7) (?v5 S7)) (let ((?v_0 (f10 ?v0))) (=> (= (f6 ?v_0 (f4 (f12 (f13 (f14 (f15 f16 ?v1) ?v2) ?v3)) f11)) f1) (=> (forall ((?v6 S12) (?v7 S12)) (=> (= (f23 (f24 ?v4 ?v6) ?v7) f1) (forall ((?v8 S12)) (=> (forall ((?v9 S12)) (=> (= (f23 (f24 ?v1 ?v9) ?v7) f1) (= (f23 (f24 ?v3 ?v9) ?v8) f1))) (= (f23 (f24 ?v5 ?v6) ?v8) f1))))) (= (f6 ?v_0 (f4 (f12 (f13 (f14 (f15 f16 ?v4) ?v2) ?v5)) f11)) f1))))))
(assert (forall ((?v0 S2)) (=> (= (f6 (f7 ?v0) f11) f1) false)))
(assert (forall ((?v0 S14) (?v1 S7) (?v2 S9) (?v3 S7)) (= (f25 (f26 f27 ?v0) (f13 (f14 (f15 f16 ?v1) ?v2) ?v3)) (f28 f29 0))))
(assert (forall ((?v0 S2) (?v1 S3)) (not (= f11 (f4 (f12 ?v0) ?v1)))))
(assert (forall ((?v0 S2) (?v1 S3)) (not (= (f4 (f12 ?v0) ?v1) f11))))
(assert (forall ((?v0 S2) (?v1 S2)) (= (= (f6 (f7 ?v0) (f4 (f12 ?v1) f11)) f1) (= ?v0 ?v1))))
(assert (forall ((?v0 S3) (?v1 S2)) (=> (= ?v0 f11) (not (= (f6 (f7 ?v1) ?v0) f1)))))
(assert (forall ((?v0 S3)) (= (= (f30 ?v0) f11) (forall ((?v1 S2)) (not (= (f3 ?v0 ?v1) f1))))))
(assert (forall ((?v0 S2)) (= (= (f6 (f7 ?v0) f11) f1) false)))
(assert (forall ((?v0 S3)) (= (= f11 (f30 ?v0)) (forall ((?v1 S2)) (not (= (f3 ?v0 ?v1) f1))))))
(assert (forall ((?v0 S3)) (= (forall ((?v1 S2)) (=> (= (f6 (f7 ?v1) f11) f1) (= (f3 ?v0 ?v1) f1))) true)))
(assert (forall ((?v0 S3)) (= (exists ((?v1 S2)) (and (= (f6 (f7 ?v1) f11) f1) (= (f3 ?v0 ?v1) f1))) false)))
(assert (forall ((?v0 S3)) (= (exists ((?v1 S2)) (= (f6 (f7 ?v1) ?v0) f1)) (not (= ?v0 f11)))))
(assert (forall ((?v0 S3)) (= (forall ((?v1 S2)) (not (= (f6 (f7 ?v1) ?v0) f1))) (= ?v0 f11))))
(assert (= f11 (f30 f9)))
(assert (forall ((?v0 S2) (?v1 S3)) (=> (= (f6 (f7 ?v0) ?v1) f1) (= (f4 (f12 ?v0) ?v1) ?v1))))
(assert (forall ((?v0 S2) (?v1 S3) (?v2 S2)) (let ((?v_0 (f7 ?v0))) (=> (= (f6 ?v_0 ?v1) f1) (= (f6 ?v_0 (f4 (f12 ?v2) ?v1)) f1)))))
(assert (forall ((?v0 S2) (?v1 S3) (?v2 S3)) (let ((?v_0 (f7 ?v0)) (?v_1 (f12 ?v0))) (=> (not (= (f6 ?v_0 ?v1) f1)) (=> (not (= (f6 ?v_0 ?v2) f1)) (= (= (f4 ?v_1 ?v1) (f4 ?v_1 ?v2)) (= ?v1 ?v2)))))))
(assert (forall ((?v0 S2) (?v1 S3) (?v2 S2)) (= (= (f3 (f4 (f12 ?v0) ?v1) ?v2) f1) (or (= ?v0 ?v2) (= (f3 ?v1 ?v2) f1)))))
(assert (forall ((?v0 S2) (?v1 S2) (?v2 S3)) (let ((?v_0 (f7 ?v0))) (= (= (f6 ?v_0 (f4 (f12 ?v1) ?v2)) f1) (or (= ?v0 ?v1) (= (f6 ?v_0 ?v2) f1))))))
(assert (forall ((?v0 S2) (?v1 S2) (?v2 S3)) (let ((?v_1 (f12 ?v0)) (?v_0 (f12 ?v1))) (= (f4 ?v_1 (f4 ?v_0 ?v2)) (f4 ?v_0 (f4 ?v_1 ?v2))))))
(assert (forall ((?v0 S2) (?v1 S3)) (let ((?v_0 (f12 ?v0))) (let ((?v_1 (f4 ?v_0 ?v1))) (= (f4 ?v_0 ?v_1) ?v_1)))))
(assert (forall ((?v0 S2) (?v1 S3)) (= (f4 (f12 ?v0) (f30 ?v1)) (f30 (f4 (f8 ?v0) ?v1)))))
(assert (forall ((?v0 S2) (?v1 S3)) (= (f4 (f12 ?v0) ?v1) (f30 (f4 (f5 ?v0) ?v1)))))
(assert (forall ((?v0 S2) (?v1 S3)) (= (f6 (f7 ?v0) (f4 (f12 ?v0) ?v1)) f1)))
(assert (forall ((?v0 S2) (?v1 S2)) (=> (= (f4 (f12 ?v0) f11) (f4 (f12 ?v1) f11)) (= ?v0 ?v1))))
(assert (forall ((?v0 S2) (?v1 S2)) (=> (= (f6 (f7 ?v0) (f4 (f12 ?v1) f11)) f1) (=> (=> (= ?v0 ?v1) false) false))))
(assert (forall ((?v0 S2) (?v1 S2) (?v2 S2) (?v3 S2)) (= (= (f4 (f12 ?v0) (f4 (f12 ?v1) f11)) (f4 (f12 ?v2) (f4 (f12 ?v3) f11))) (or (and (= ?v0 ?v2) (= ?v1 ?v3)) (and (= ?v0 ?v3) (= ?v1 ?v2))))))
(assert (forall ((?v0 S2)) (= (f31 f32 (f4 (f12 ?v0) f11)) ?v0)))
(assert (forall ((?v0 S2)) (= (= (f3 f11 ?v0) f1) (= f33 f1))))
(assert (forall ((?v0 S2)) (= (= (f3 f11 ?v0) f1) (= f33 f1))))
(assert (forall ((?v0 S3) (?v1 S7)) (= (f6 (f10 ?v0) (f4 (f12 (f13 (f14 (f15 f16 ?v1) f34) ?v1)) f11)) f1)))
(assert (forall ((?v0 S3) (?v1 S7) (?v2 S9) (?v3 S7) (?v4 S9) (?v5 S7)) (let ((?v_0 (f10 ?v0)) (?v_1 (f15 f16 ?v1))) (=> (= (f6 ?v_0 (f4 (f12 (f13 (f14 ?v_1 ?v2) ?v3)) f11)) f1) (=> (= (f6 ?v_0 (f4 (f12 (f13 (f14 (f15 f16 ?v3) ?v4) ?v5)) f11)) f1) (= (f6 ?v_0 (f4 (f12 (f13 (f14 ?v_1 (f35 (f36 f37 ?v2) ?v4)) ?v5)) f11)) f1))))))
(assert (forall ((?v0 S7) (?v1 S9) (?v2 S7)) (= (f25 f38 (f13 (f14 (f15 f16 ?v0) ?v1) ?v2)) (f28 f29 0))))
(assert (forall ((?v0 S2)) (=> (forall ((?v1 S7) (?v2 S9) (?v3 S7)) (=> (= ?v0 (f13 (f14 (f15 f16 ?v1) ?v2) ?v3)) false)) false)))
(assert (forall ((?v0 S2) (?v1 S3)) (=> (= (f6 (f7 ?v0) ?v1) f1) (=> (forall ((?v2 S3)) (=> (= ?v1 (f4 (f12 ?v0) ?v2)) (=> (not (= (f6 (f7 ?v0) ?v2) f1)) false))) false))))
(assert (forall ((?v0 S2) (?v1 S3)) (=> (= (f6 (f7 ?v0) ?v1) f1) (exists ((?v2 S3)) (and (= ?v1 (f4 (f12 ?v0) ?v2)) (not (= (f6 (f7 ?v0) ?v2) f1)))))))
(assert (forall ((?v0 S3)) (=> (forall ((?v1 S2)) (=> (= (f6 (f7 ?v1) ?v0) f1) false)) (= ?v0 f11))))
(assert (forall ((?v0 S9) (?v1 S9)) (not (= (f35 (f36 f37 ?v0) ?v1) f34))))
(assert (forall ((?v0 S9) (?v1 S9)) (not (= f34 (f35 (f36 f37 ?v0) ?v1)))))
(assert (forall ((?v0 S7) (?v1 S3) (?v2 S9) (?v3 S7)) (=> (forall ((?v4 S12) (?v5 S12)) (=> (= (f23 (f24 ?v0 ?v4) ?v5) f1) (exists ((?v6 S7) (?v7 S7)) (and (= (f6 (f10 ?v1) (f4 (f12 (f13 (f14 (f15 f16 ?v6) ?v2) ?v7)) f11)) f1) (forall ((?v8 S12)) (=> (forall ((?v9 S12)) (=> (= (f23 (f24 ?v6 ?v9) ?v5) f1) (= (f23 (f24 ?v7 ?v9) ?v8) f1))) (= (f23 (f24 ?v3 ?v4) ?v8) f1))))))) (= (f6 (f10 ?v1) (f4 (f12 (f13 (f14 (f15 f16 ?v0) ?v2) ?v3)) f11)) f1))))
(assert (forall ((?v0 S9) (?v1 S9) (?v2 S9) (?v3 S9)) (= (= (f35 (f36 f37 ?v0) ?v1) (f35 (f36 f37 ?v2) ?v3)) (and (= ?v0 ?v2) (= ?v1 ?v3)))))
(assert (forall ((?v0 S3)) (= (not (= ?v0 f11)) (exists ((?v1 S2) (?v2 S3)) (and (= ?v0 (f4 (f12 ?v1) ?v2)) (not (= (f6 (f7 ?v1) ?v2) f1)))))))
(assert (forall ((?v0 S2)) (= (= (f3 f11 ?v0) f1) (= (f6 (f7 ?v0) f11) f1))))
(assert (forall ((?v0 S3) (?v1 S3)) (= (= (f6 (f22 ?v0) ?v1) f1) (forall ((?v2 S16)) (=> (forall ((?v3 S2)) (=> (= (f6 (f7 ?v3) ?v0) f1) (= (f3 (f39 ?v2) ?v3) f1))) (forall ((?v3 S2)) (=> (= (f6 (f7 ?v3) ?v1) f1) (= (f3 (f39 ?v2) ?v3) f1))))))))
(assert (forall ((?v0 S22) (?v1 S2) (?v2 S2)) (= (= (f3 (f4 (f40 ?v0) (f4 (f12 ?v1) f11)) ?v2) f1) (= ?v1 ?v2))))
(assert (forall ((?v0 S3) (?v1 S16)) (=> (forall ((?v2 S2)) (=> (= (f6 (f7 ?v2) ?v0) f1) (= (f3 (f39 (f28 f29 (+ (f41 f42 ?v1) 1))) ?v2) f1))) (forall ((?v2 S2)) (=> (= (f6 (f7 ?v2) ?v0) f1) (= (f3 (f39 ?v1) ?v2) f1))))))
(assert (forall ((?v0 S16) (?v1 S2)) (=> (= (f3 (f39 (f28 f29 (+ (f41 f42 ?v0) 1))) ?v1) f1) (= (f3 (f39 ?v0) ?v1) f1))))
(assert (forall ((?v0 S22) (?v1 S3) (?v2 S2)) (=> (= (f3 (f4 (f40 ?v0) ?v1) ?v2) f1) (not (= ?v1 f11)))))
(assert (forall ((?v0 S22) (?v1 S2)) (=> (= (f3 (f4 (f40 ?v0) f11) ?v1) f1) false)))
(assert (forall ((?v0 S22) (?v1 S2) (?v2 S3) (?v3 S2)) (=> (= (f3 (f4 (f43 (f44 ?v0) ?v1) ?v2) ?v3) f1) (=> (not (= (f6 (f7 ?v1) ?v2) f1)) (= (f3 (f4 (f40 ?v0) (f4 (f12 ?v1) ?v2)) ?v3) f1)))))
(assert (forall ((?v0 S22) (?v1 S19) (?v2 S2)) (=> (= (f45 ?v0 ?v1) f1) (= (f31 ?v1 (f4 (f12 ?v2) f11)) ?v2))))
(assert (forall ((?v0 S7) (?v1 S25) (?v2 S7)) (= (f3 (f39 (f28 f29 0)) (f13 (f14 (f15 f16 ?v0) (f46 f47 ?v1)) ?v2)) f1)))
(assert (forall ((?v0 S16) (?v1 S7) (?v2 S9) (?v3 S7)) (= (= (f3 (f39 ?v0) (f13 (f14 (f15 f16 ?v1) ?v2) ?v3)) f1) (forall ((?v4 S12) (?v5 S12)) (=> (= (f23 (f24 ?v1 ?v4) ?v5) f1) (forall ((?v6 S12)) (=> (= (f48 ?v2 ?v5 ?v0 ?v6) f1) (= (f23 (f24 ?v3 ?v4) ?v6) f1))))))))
(assert (forall ((?v0 S22) (?v1 S2) (?v2 S3) (?v3 S2)) (=> (= (f3 (f4 (f40 ?v0) (f4 (f12 ?v1) ?v2)) ?v3) f1) (=> (forall ((?v4 S2) (?v5 S3)) (=> (= (f4 (f12 ?v1) ?v2) (f4 (f12 ?v4) ?v5)) (=> (= (f3 (f4 (f43 (f44 ?v0) ?v4) ?v5) ?v3) f1) (=> (not (= (f6 (f7 ?v4) ?v5) f1)) false)))) false))))
(assert (forall ((?v0 S25) (?v1 S25)) (= (= (f46 f47 ?v0) (f46 f47 ?v1)) (= ?v0 ?v1))))
(assert (forall ((?v0 S9) (?v1 S9) (?v2 S25)) (not (= (f35 (f36 f37 ?v0) ?v1) (f46 f47 ?v2)))))
(assert (forall ((?v0 S25) (?v1 S9) (?v2 S9)) (not (= (f46 f47 ?v0) (f35 (f36 f37 ?v1) ?v2)))))
(assert (forall ((?v0 S22) (?v1 S2) (?v2 S2)) (=> (= (f3 (f4 (f43 (f44 ?v0) ?v1) f11) ?v2) f1) (=> (=> (= ?v2 ?v1) false) false))))
(assert (forall ((?v0 S22) (?v1 S2)) (= (f3 (f4 (f43 (f44 ?v0) ?v1) f11) ?v1) f1)))
(assert (forall ((?v0 S2) (?v1 S3)) (= (= (f6 (f7 ?v0) ?v1) f1) (= (f3 ?v1 ?v0) f1))))
(assert (forall ((?v0 S3)) (= (f30 ?v0) ?v0)))
(assert (forall ((?v0 S25)) (not (= (f46 f47 ?v0) f34))))
(assert (forall ((?v0 S25)) (not (= f34 (f46 f47 ?v0)))))
(assert (forall ((?v0 S2) (?v1 S3) (?v2 S22) (?v3 S2) (?v4 S2)) (let ((?v_0 (f43 (f44 ?v2) ?v3))) (=> (not (= (f6 (f7 ?v0) ?v1) f1)) (=> (= (f3 (f4 ?v_0 ?v1) ?v4) f1) (= (f3 (f4 ?v_0 (f4 (f12 ?v0) ?v1)) (f49 (f50 ?v2 ?v0) ?v4)) f1))))))
(assert (forall ((?v0 S12) (?v1 S16) (?v2 S12)) (=> (= (f48 f34 ?v0 ?v1 ?v2) f1) (=> (=> (= ?v2 ?v0) false) false))))
(assert (forall ((?v0 S12) (?v1 S16)) (= (f48 f34 ?v0 ?v1 ?v0) f1)))
(assert (forall ((?v0 S9) (?v1 S12) (?v2 S16) (?v3 S12) (?v4 S9) (?v5 S12)) (=> (= (f48 ?v0 ?v1 ?v2 ?v3) f1) (=> (= (f48 ?v4 ?v3 ?v2 ?v5) f1) (= (f48 (f35 (f36 f37 ?v0) ?v4) ?v1 ?v2 ?v5) f1)))))
(assert (forall ((?v0 S22) (?v1 S3) (?v2 S2)) (= (= (f3 (f4 (f40 ?v0) ?v1) ?v2) f1) (exists ((?v3 S2) (?v4 S3) (?v5 S2)) (and (= ?v1 (f4 (f12 ?v3) ?v4)) (and (= ?v2 ?v5) (and (= (f3 (f4 (f43 (f44 ?v0) ?v3) ?v4) ?v5) f1) (not (= (f6 (f7 ?v3) ?v4) f1)))))))))
(assert (forall ((?v0 S22) (?v1 S2) (?v2 S3) (?v3 S2)) (= (= (f3 (f4 (f43 (f44 ?v0) ?v1) ?v2) ?v3) f1) (or (and (= ?v2 f11) (= ?v3 ?v1)) (exists ((?v4 S2) (?v5 S3) (?v6 S2)) (and (= ?v2 (f4 (f12 ?v4) ?v5)) (and (= ?v3 (f49 (f50 ?v0 ?v4) ?v6)) (and (not (= (f6 (f7 ?v4) ?v5) f1)) (= (f3 (f4 (f43 (f44 ?v0) ?v1) ?v5) ?v6) f1)))))))))
(assert (forall ((?v0 S9) (?v1 S9) (?v2 S12) (?v3 S16) (?v4 S12)) (=> (= (f48 (f35 (f36 f37 ?v0) ?v1) ?v2 ?v3 ?v4) f1) (=> (forall ((?v5 S12)) (=> (= (f48 ?v0 ?v2 ?v3 ?v5) f1) (=> (= (f48 ?v1 ?v5 ?v3 ?v4) f1) false))) false))))
(assert (forall ((?v0 S9) (?v1 S12) (?v2 S16) (?v3 S12)) (=> (= (f48 ?v0 ?v1 ?v2 ?v3) f1) (= (f48 ?v0 ?v1 (f28 f29 (+ (f41 f42 ?v2) 1)) ?v3) f1))))
(assert (forall ((?v0 S9) (?v1 S12) (?v2 S16) (?v3 S12) (?v4 S16)) (=> (= (f48 ?v0 ?v1 ?v2 ?v3) f1) (=> (<= (f41 f42 ?v2) (f41 f42 ?v4)) (= (f48 ?v0 ?v1 ?v4 ?v3) f1)))))
(assert (forall ((?v0 S9) (?v1 S12) (?v2 S16) (?v3 S12) (?v4 S9) (?v5 S12) (?v6 S16) (?v7 S12)) (=> (= (f48 ?v0 ?v1 ?v2 ?v3) f1) (=> (= (f48 ?v4 ?v5 ?v6 ?v7) f1) (exists ((?v8 S16)) (and (= (f48 ?v0 ?v1 ?v8 ?v3) f1) (= (f48 ?v4 ?v5 ?v8 ?v7) f1)))))))
(assert (forall ((?v0 S7) (?v1 S25) (?v2 S7) (?v3 S3)) (let ((?v_0 (f15 f16 ?v0))) (let ((?v_1 (f12 (f13 (f14 ?v_0 (f46 f47 ?v1)) ?v2)))) (=> (= (f6 (f10 (f4 ?v_1 ?v3)) (f4 (f12 (f13 (f14 ?v_0 (f51 f52 (f53 ?v1))) ?v2)) f11)) f1) (= (f6 (f10 ?v3) (f4 ?v_1 f11)) f1))))))
(assert (forall ((?v0 S3) (?v1 S7) (?v2 S25) (?v3 S7)) (let ((?v_0 (f10 ?v0)) (?v_1 (f15 f16 ?v1))) (=> (= (f6 ?v_0 (f4 (f12 (f13 (f14 ?v_1 (f51 f52 (f53 ?v2))) ?v3)) f11)) f1) (= (f6 ?v_0 (f4 (f12 (f13 (f14 ?v_1 (f46 f47 ?v2)) ?v3)) f11)) f1)))))
(assert (forall ((?v0 S22) (?v1 S19) (?v2 S3) (?v3 S2)) (=> (= (f45 ?v0 ?v1) f1) (=> (= (f54 ?v2) f1) (=> (not (= (f6 (f7 ?v3) ?v2) f1)) (=> (not (= ?v2 f11)) (= (f31 ?v1 (f4 (f12 ?v3) ?v2)) (f49 (f50 ?v0 ?v3) (f31 ?v1 ?v2)))))))))
(assert (forall ((?v0 S22) (?v1 S19) (?v2 S3)) (=> (= (f45 ?v0 ?v1) f1) (=> (= (f54 ?v2) f1) (=> (not (= ?v2 f11)) (=> (forall ((?v3 S2) (?v4 S2)) (= (f6 (f7 (f49 (f50 ?v0 ?v3) ?v4)) (f4 (f12 ?v3) (f4 (f12 ?v4) f11))) f1)) (= (f6 (f7 (f31 ?v1 ?v2)) ?v2) f1)))))))
(assert (forall ((?v0 S16) (?v1 S7) (?v2 S25) (?v3 S7)) (let ((?v_0 (f15 f16 ?v1))) (= (= (f3 (f39 ?v0) (f13 (f14 ?v_0 (f51 f52 (f53 ?v2))) ?v3)) f1) (= (f3 (f39 (f28 f29 (+ (f41 f42 ?v0) 1))) (f13 (f14 ?v_0 (f46 f47 ?v2)) ?v3)) f1)))))
(assert (= (f54 f11) f1))
(assert (forall ((?v0 S3) (?v1 S2)) (=> (= (f54 ?v0) f1) (= (f54 (f4 (f12 ?v1) ?v0)) f1))))
(assert (forall ((?v0 S25) (?v1 S12) (?v2 S16) (?v3 S12)) (=> (= (f48 (f51 f52 (f53 ?v0)) ?v1 ?v2 ?v3) f1) (= (f48 (f46 f47 ?v0) ?v1 (f28 f29 (+ (f41 f42 ?v2) 1)) ?v3) f1))))
(assert (forall ((?v0 S2) (?v1 S3)) (= (= (f54 (f4 (f12 ?v0) ?v1)) f1) (= (f54 ?v1) f1))))
(assert (forall ((?v0 S25) (?v1 S12) (?v2 S16) (?v3 S12)) (=> (= (f48 (f46 f47 ?v0) ?v1 ?v2 ?v3) f1) (=> (forall ((?v4 S16)) (=> (= ?v2 (f28 f29 (+ (f41 f42 ?v4) 1))) (=> (= (f48 (f51 f52 (f53 ?v0)) ?v1 ?v4 ?v3) f1) false))) false))))
(assert (forall ((?v0 S3) (?v1 S22)) (=> (= (f54 ?v0) f1) (=> (not (= ?v0 f11)) (exists ((?v2 S2)) (= (f3 (f4 (f40 ?v1) ?v0) ?v2) f1))))))
(assert (forall ((?v0 S3)) (= (= (f54 ?v0) f1) (or (= ?v0 f11) (exists ((?v1 S3) (?v2 S2)) (and (= ?v0 (f4 (f12 ?v2) ?v1)) (= (f54 ?v1) f1)))))))
(assert (forall ((?v0 S3) (?v1 S5)) (=> (= (f54 ?v0) f1) (=> (= (f6 ?v1 f11) f1) (=> (forall ((?v2 S2) (?v3 S3)) (=> (= (f54 ?v3) f1) (=> (not (= (f6 (f7 ?v2) ?v3) f1)) (=> (= (f6 ?v1 ?v3) f1) (= (f6 ?v1 (f4 (f12 ?v2) ?v3)) f1))))) (= (f6 ?v1 ?v0) f1))))))
(assert (forall ((?v0 S3) (?v1 S22) (?v2 S2)) (=> (= (f54 ?v0) f1) (exists ((?v3 S2)) (= (f3 (f4 (f43 (f44 ?v1) ?v2) ?v0) ?v3) f1)))))
(assert (forall ((?v0 S22) (?v1 S19) (?v2 S3) (?v3 S2)) (=> (= (f55 ?v0 ?v1) f1) (=> (= (f54 ?v2) f1) (=> (not (= ?v2 f11)) (= (f31 ?v1 (f4 (f12 ?v3) ?v2)) (f49 (f50 ?v0 ?v3) (f31 ?v1 ?v2))))))))
(assert (forall ((?v0 S3) (?v1 S5)) (=> (= (f54 ?v0) f1) (=> (not (= ?v0 f11)) (=> (forall ((?v2 S2)) (= (f6 ?v1 (f4 (f12 ?v2) f11)) f1)) (=> (forall ((?v2 S2) (?v3 S3)) (=> (= (f54 ?v3) f1) (=> (not (= ?v3 f11)) (=> (not (= (f6 (f7 ?v2) ?v3) f1)) (=> (= (f6 ?v1 ?v3) f1) (= (f6 ?v1 (f4 (f12 ?v2) ?v3)) f1)))))) (= (f6 ?v1 ?v0) f1)))))))
(assert (forall ((?v0 S25) (?v1 S12) (?v2 S12)) (=> (= (f23 (f56 (f46 f47 ?v0) ?v1) ?v2) f1) (=> (=> (= (f23 (f56 (f51 f52 (f53 ?v0)) ?v1) ?v2) f1) false) false))))
(assert (forall ((?v0 S25) (?v1 S12) (?v2 S12)) (=> (= (f23 (f56 (f51 f52 (f53 ?v0)) ?v1) ?v2) f1) (= (f23 (f56 (f46 f47 ?v0) ?v1) ?v2) f1))))
(assert (forall ((?v0 S9) (?v1 S12) (?v2 S12) (?v3 S9) (?v4 S12)) (=> (= (f23 (f56 ?v0 ?v1) ?v2) f1) (=> (= (f23 (f56 ?v3 ?v2) ?v4) f1) (= (f23 (f56 (f35 (f36 f37 ?v0) ?v3) ?v1) ?v4) f1)))))
(assert (forall ((?v0 S12) (?v1 S12)) (=> (= (f23 (f56 f34 ?v0) ?v1) f1) (=> (=> (= ?v1 ?v0) false) false))))
(assert (forall ((?v0 S12)) (= (f23 (f56 f34 ?v0) ?v0) f1)))
(assert (forall ((?v0 S9) (?v1 S12) (?v2 S12) (?v3 S12)) (let ((?v_0 (f56 ?v0 ?v1))) (=> (= (f23 ?v_0 ?v2) f1) (=> (= (f23 ?v_0 ?v3) f1) (= ?v3 ?v2))))))
(assert (forall ((?v0 S22) (?v1 S19) (?v2 S2)) (=> (= (f55 ?v0 ?v1) f1) (= (f49 (f50 ?v0 ?v2) ?v2) ?v2))))
(assert (forall ((?v0 S9) (?v1 S12) (?v2 S12)) (= (= (f23 (f56 ?v0 ?v1) ?v2) f1) (exists ((?v3 S16)) (= (f48 ?v0 ?v1 ?v3 ?v2) f1)))))
(assert (forall ((?v0 S9) (?v1 S12) (?v2 S16) (?v3 S12)) (=> (= (f48 ?v0 ?v1 ?v2 ?v3) f1) (= (f23 (f56 ?v0 ?v1) ?v3) f1))))
(assert (forall ((?v0 S22) (?v1 S19) (?v2 S3) (?v3 S2)) (let ((?v_0 (f31 ?v1 ?v2))) (=> (= (f55 ?v0 ?v1) f1) (=> (= (f54 ?v2) f1) (=> (= (f6 (f7 ?v3) ?v2) f1) (= (f49 (f50 ?v0 ?v3) ?v_0) ?v_0)))))))
(assert (forall ((?v0 S9) (?v1 S9) (?v2 S12) (?v3 S12)) (=> (= (f23 (f56 (f35 (f36 f37 ?v0) ?v1) ?v2) ?v3) f1) (=> (forall ((?v4 S12)) (=> (= (f23 (f56 ?v0 ?v2) ?v4) f1) (=> (= (f23 (f56 ?v1 ?v4) ?v3) f1) false))) false))))
(assert (forall ((?v0 S9) (?v1 S12) (?v2 S12)) (=> (= (f23 (f56 ?v0 ?v1) ?v2) f1) (exists ((?v3 S16)) (= (f48 ?v0 ?v1 ?v3 ?v2) f1)))))
(assert (forall ((?v0 S22) (?v1 S19) (?v2 S3) (?v3 S2)) (let ((?v_0 (f12 ?v3))) (let ((?v_1 (f4 (f57 ?v2) (f4 ?v_0 f11)))) (=> (= (f45 ?v0 ?v1) f1) (=> (= (f54 ?v2) f1) (= (f31 ?v1 (f4 ?v_0 ?v2)) (ite (= ?v_1 f11) ?v3 (f49 (f50 ?v0 ?v3) (f31 ?v1 ?v_1))))))))))
(assert (forall ((?v0 S22) (?v1 S19) (?v2 S3) (?v3 S2)) (let ((?v_0 (f4 (f57 ?v2) (f4 (f12 ?v3) f11)))) (=> (= (f45 ?v0 ?v1) f1) (=> (= (f54 ?v2) f1) (=> (= (f6 (f7 ?v3) ?v2) f1) (= (f31 ?v1 ?v2) (ite (= ?v_0 f11) ?v3 (f49 (f50 ?v0 ?v3) (f31 ?v1 ?v_0))))))))))
(assert (forall ((?v0 S16)) (= (f28 f29 (f41 f42 ?v0)) ?v0)))
(assert (forall ((?v0 Int)) (=> (<= 0 ?v0) (= (f41 f42 (f28 f29 ?v0)) ?v0))))
(assert (forall ((?v0 Int)) (=> (< ?v0 0) (= (f41 f42 (f28 f29 ?v0)) 0))))
(check-sat)
(exit)
